# Solution for model GasLib-40
# Objective value = 1.3409091231527720e+01
loadshed[innode_1] 0
loadshed[innode_2] 0
loadshed[innode_3] 0
loadshed[innode_4] 0
loadshed[innode_5] 0
loadshed[innode_6] 0
loadshed[innode_7] 0
loadshed[innode_8] 0
loadshed[source_1] -3.1790940010665536e-01
loadshed[source_2] 7.7460932682534289e-02
loadshed[source_3] 3.2526766959136377e-01
loadshed[sink_1] 0
loadshed[sink_2] 0
loadshed[sink_3] 0
loadshed[sink_4] 0
loadshed[sink_5] 0
loadshed[sink_6] 0
loadshed[sink_7] 0
loadshed[sink_8] 0
loadshed[sink_9] 0
loadshed[sink_10] 0
loadshed[sink_11] 0
loadshed[sink_12] 8.1991895428449746e-01
loadshed[sink_13] 0
loadshed[sink_14] 0
loadshed[sink_15] 0
loadshed[sink_16] 0
loadshed[sink_17] 0
loadshed[sink_18] 0
loadshed[sink_19] 0
loadshed[sink_20] 0
loadshed[sink_21] 0
loadshed[sink_22] 0
loadshed[sink_23] 0
loadshed[sink_24] 0
loadshed[sink_25] 0
loadshed[sink_26] 0
loadshed[sink_27] 0
loadshed[sink_28] 0
loadshed[sink_29] 0
flow[source_1,sink_3] 2.0834866314880560e+02
flow[innode_1,sink_16] 1.6354166666666970e+01
flow[innode_6,sink_13] 7.8105451267317347e+00
flow[sink_13,sink_14] -8.5436215399349322e+00
flow[sink_14,sink_10] -2.4897788206601263e+01
flow[sink_25,sink_26] 1.7811678399908655e+02
flow[sink_26,sink_9] 1.5013257543513970e+02
flow[sink_9,sink_18] 1.3377840876847304e+02
flow[sink_26,sink_4] 1.1630041897280048e+01
flow[sink_4,sink_20] -1.6367109239841326e+01
flow[sink_18,sink_6] 1.1742424210180639e+02
flow[sink_25,innode_8] -1.7564032981546924e+02
flow[sink_6,sink_7] 68.3617421018057
flow[sink_6,sink_22] 3.2708333333333641e+01
flow[sink_7,sink_24] 3.5653408768472289e+01
flow[sink_22,sink_1] 1.6354166666666970e+01
flow[sink_24,sink_21] 1.9299242101805618e+01
flow[sink_21,sink_12] 2.9450754351389485e+00
flow[sink_7,sink_5] 1.6354166666667368e+01
flow[sink_5,sink_17] 0
flow[sink_17,sink_4] -1.1642984470454714e+01
flow[sink_17,sink_8] -4.7111821962119542e+00
flow[sink_3,sink_23] 16.3541666666697
flow[sink_8,sink_20] -2.1065348862878622e+01
flow[sink_25,sink_20] 5.3786624769386606e+01
flow[sink_25,sink_15] -80.4277907464023
flow[sink_15,sink_29] 0
flow[sink_29,sink_28] 1.6354166666667879e+01
flow[sink_29,sink_2] 1.1313612407973564e+02
flow[sink_2,sink_15] 9.6781957413068966e+01
flow[sink_29,innode_7] -1.4584445741307019e+02
flow[innode_4,sink_19] 1.0666862153994863e+02
flow[sink_19,innode_3] 3.6092308458615108e+01
flow[innode_4,innode_5] 0
flow[sink_27,innode_5] 0
flow[sink_27,sink_19] -1.6354166666679703e+01
flow[sink_10,sink_11] 3.2708333333333641e+01
flow[sink_10,innode_2] -3.7867979747987157e+01
flow[sink_10,innode_3] -3.6092308458615108e+01
flow[innode_6,sink_25] -7.8105451267317347e+00
flow[sink_11,innode_1] 1.6354166666666970e+01
flow[sink_19,innode_2] 3.7867979747987157e+01
flow[source_3,innode_4] 1.0666862153994863e+02
flow[source_2,innode_7] 1.4584445741307019e+02
flow[sink_3,innode_8] 1.7564032981546924e+02
pressure[innode_1] 74.5386519110566
pressure[innode_2] 7.6691832348219918e+01
pressure[innode_3] 7.6611910018148876e+01
pressure[innode_4] 81.01325
pressure[innode_5] 81.01325
pressure[innode_6] 7.3540491488136581e+01
pressure[innode_7] 81.01325
pressure[innode_8] 8.0316820011167763e+01
pressure[source_1] 81.01325
pressure[source_2] 81.01325
pressure[source_3] 81.01325
pressure[sink_1] 4.1932852822068313e+01
pressure[sink_2] 7.4246616404405870e+01
pressure[sink_3] 8.0316820011167763e+01
pressure[sink_4] 5.9517157366555026e+01
pressure[sink_5] 3.6293916636233689e+01
pressure[sink_6] 4.4033930432455684e+01
pressure[sink_7] 4.3095486663128405e+01
pressure[sink_8] 5.9249966035262268e+01
pressure[sink_9] 5.2010008871963393e+01
pressure[sink_10] 7.4690353218660150e+01
pressure[sink_11] 74.5386519110566
pressure[sink_12] 1.01325
pressure[sink_13] 7.3497433258116260e+01
pressure[sink_14] 7.3512722796617609e+01
pressure[sink_15] 7.3930644643852034e+01
pressure[sink_16] 7.3517002076238924e+01
pressure[sink_17] 5.9072200891648812e+01
pressure[sink_18] 4.7169507314488285e+01
pressure[sink_19] 7.6691832348219918e+01
pressure[sink_20] 6.0717924603294257e+01
pressure[sink_21] 2.0612690244288521e+00
pressure[sink_22] 4.2996621964423319e+01
pressure[sink_23] 8.0152101999507977e+01
pressure[sink_24] 2.2749901995719277e+00
pressure[sink_25] 7.3540491488136581e+01
pressure[sink_26] 6.0995830993267361e+01
pressure[sink_27] 7.6340702351076416e+01
pressure[sink_28] 76.8171998355887
pressure[sink_29] 7.7112482109205871e+01
interdiction[source_1,sink_3] 0
interdiction[innode_1,sink_16] 0
interdiction[innode_6,sink_13] 0
interdiction[sink_13,sink_14] 0
interdiction[sink_14,sink_10] 0
interdiction[sink_25,sink_26] 0
interdiction[sink_26,sink_9] 0
interdiction[sink_9,sink_18] 0
interdiction[sink_26,sink_4] 0
interdiction[sink_4,sink_20] 0
interdiction[sink_18,sink_6] 0
interdiction[sink_25,innode_8] 0
interdiction[sink_6,sink_7] 0
interdiction[sink_6,sink_22] 0
interdiction[sink_7,sink_24] 0
interdiction[sink_22,sink_1] 0
interdiction[sink_24,sink_21] 0
interdiction[sink_21,sink_12] 0
interdiction[sink_7,sink_5] 0
interdiction[sink_5,sink_17] 1
interdiction[sink_17,sink_4] 0
interdiction[sink_17,sink_8] 0
interdiction[sink_3,sink_23] 0
interdiction[sink_8,sink_20] 0
interdiction[sink_25,sink_20] 0
interdiction[sink_25,sink_15] 0
interdiction[sink_15,sink_29] 1
interdiction[sink_29,sink_28] 0
interdiction[sink_29,sink_2] 0
interdiction[sink_2,sink_15] 0
interdiction[sink_29,innode_7] 0
interdiction[innode_4,sink_19] 0
interdiction[sink_19,innode_3] 0
interdiction[innode_4,innode_5] 0
interdiction[sink_27,innode_5] 1
interdiction[sink_27,sink_19] 0
interdiction[sink_10,sink_11] 0
interdiction[sink_10,innode_2] 0
interdiction[sink_10,innode_3] 0
interdiction[innode_6,sink_25] 0
interdiction[sink_11,innode_1] 0
interdiction[sink_19,innode_2] 0
interdiction[source_3,innode_4] 0
interdiction[source_2,innode_7] 0
interdiction[sink_3,innode_8] 0
WCcheckFlow[source_1,sink_3] 39
WCcheckFlow[innode_1,sink_16] 1
WCcheckFlow[innode_6,sink_13] 13
WCcheckFlow[sink_13,sink_14] 12
WCcheckFlow[sink_14,sink_10] 11
WCcheckFlow[sink_25,sink_26] 15
WCcheckFlow[sink_26,sink_9] 10
WCcheckFlow[sink_9,sink_18] 9
WCcheckFlow[sink_26,sink_4] 4
WCcheckFlow[sink_4,sink_20] 1
WCcheckFlow[sink_18,sink_6] 8
WCcheckFlow[sink_25,innode_8] -36
WCcheckFlow[sink_6,sink_7] 5
WCcheckFlow[sink_6,sink_22] 2
WCcheckFlow[sink_7,sink_24] 3
WCcheckFlow[sink_22,sink_1] 1
WCcheckFlow[sink_24,sink_21] 2
WCcheckFlow[sink_21,sink_12] 1
WCcheckFlow[sink_7,sink_5] 1
WCcheckFlow[sink_5,sink_17] 0
WCcheckFlow[sink_17,sink_4] -2
WCcheckFlow[sink_17,sink_8] 1
WCcheckFlow[sink_3,sink_23] 1
WCcheckFlow[sink_8,sink_20] 0
WCcheckFlow[sink_25,sink_20] 0
WCcheckFlow[sink_25,sink_15] 6
WCcheckFlow[sink_15,sink_29] 0
WCcheckFlow[sink_29,sink_28] 1
WCcheckFlow[sink_29,sink_2] -4
WCcheckFlow[sink_2,sink_15] -5
WCcheckFlow[sink_29,innode_7] 2
WCcheckFlow[innode_4,sink_19] -3
WCcheckFlow[sink_19,innode_3] -5
WCcheckFlow[innode_4,innode_5] 1
WCcheckFlow[sink_27,innode_5] 0
WCcheckFlow[sink_27,sink_19] -1
WCcheckFlow[sink_10,sink_11] 3
WCcheckFlow[sink_10,innode_2] 1
WCcheckFlow[sink_10,innode_3] 6
WCcheckFlow[innode_6,sink_25] -14
WCcheckFlow[sink_11,innode_1] 2
WCcheckFlow[sink_19,innode_2] 0
WCcheckFlow[source_3,innode_4] -1
WCcheckFlow[source_2,innode_7] -1
WCcheckFlow[sink_3,innode_8] 37
